\ This file has been generated by DOcplex
\ ENCODING=ISO-8859-1
\Problem name: random_problem.lp

Minimize
 obj: - 248 x0 - 124 x1 - 62 x2 - 96 x3 - 48 x4 - 24 x5 + 1232 x6 + 616 x7
      + 308 x8 + 1880 x9 + 940 x10 + 470 x11 + 804 x12 + 402 x13 + 201 x14 + [
      864 x0^2 + 864 x0*x1 + 432 x0*x2 - 256 x0*x3 - 128 x0*x4 - 64 x0*x5
      + 1088 x0*x6 + 544 x0*x7 + 272 x0*x8 + 768 x0*x9 + 384 x0*x10 + 192 x0*x11
      - 128 x0*x12 - 64 x0*x13 - 32 x0*x14 + 216 x1^2 + 216 x1*x2 - 128 x1*x3
      - 64 x1*x4 - 32 x1*x5 + 544 x1*x6 + 272 x1*x7 + 136 x1*x8 + 384 x1*x9
      + 192 x1*x10 + 96 x1*x11 - 64 x1*x12 - 32 x1*x13 - 16 x1*x14 + 54 x2^2
      - 64 x2*x3 - 32 x2*x4 - 16 x2*x5 + 272 x2*x6 + 136 x2*x7 + 68 x2*x8
      + 192 x2*x9 + 96 x2*x10 + 48 x2*x11 - 32 x2*x12 - 16 x2*x13 - 8 x2*x14
      + 12448 x3^2 + 12448 x3*x4 + 6224 x3*x5 - 2112 x3*x6 - 1056 x3*x7
      - 528 x3*x8 + 1280 x3*x9 + 640 x3*x10 + 320 x3*x11 - 1792 x3*x12
      - 896 x3*x13 - 448 x3*x14 + 3112 x4^2 + 3112 x4*x5 - 1056 x4*x6
      - 528 x4*x7 - 264 x4*x8 + 640 x4*x9 + 320 x4*x10 + 160 x4*x11 - 896 x4*x12
      - 448 x4*x13 - 224 x4*x14 + 778 x5^2 - 528 x5*x6 - 264 x5*x7 - 132 x5*x8
      + 320 x5*x9 + 160 x5*x10 + 80 x5*x11 - 448 x5*x12 - 224 x5*x13
      - 112 x5*x14 + 5536 x6^2 + 5536 x6*x7 + 2768 x6*x8 + 1152 x6*x9
      + 576 x6*x10 + 288 x6*x11 - 2560 x6*x12 - 1280 x6*x13 - 640 x6*x14
      + 1384 x7^2 + 1384 x7*x8 + 576 x7*x9 + 288 x7*x10 + 144 x7*x11
      - 1280 x7*x12 - 640 x7*x13 - 320 x7*x14 + 346 x8^2 + 288 x8*x9
      + 144 x8*x10 + 72 x8*x11 - 640 x8*x12 - 320 x8*x13 - 160 x8*x14
      + 5472 x9^2 + 5472 x9*x10 + 2736 x9*x11 + 1344 x9*x12 + 672 x9*x13
      + 336 x9*x14 + 1368 x10^2 + 1368 x10*x11 + 672 x10*x12 + 336 x10*x13
      + 168 x10*x14 + 342 x11^2 + 336 x11*x12 + 168 x11*x13 + 84 x11*x14
      + 6272 x12^2 + 6272 x12*x13 + 3136 x12*x14 + 1568 x13^2 + 1568 x13*x14
      + 392 x14^2 ]/2
Subject To
 c0: 4 x0 + 2 x1 + x2 + 4 x3 + 2 x4 + x5 + 4 x6 + 2 x7 + x8 + 4 x9 + 2 x10 + x11
     + 4 x12 + 2 x13 + x14 = 7

Bounds
 0 <= x0 <= 1
 0 <= x1 <= 1
 0 <= x2 <= 1
 0 <= x3 <= 1
 0 <= x4 <= 1
 0 <= x5 <= 1
 0 <= x6 <= 1
 0 <= x7 <= 1
 0 <= x8 <= 1
 0 <= x9 <= 1
 0 <= x10 <= 1
 0 <= x11 <= 1
 0 <= x12 <= 1
 0 <= x13 <= 1
 0 <= x14 <= 1

Binaries
 x0 x1 x2 x3 x4 x5 x6 x7 x8 x9 x10 x11 x12 x13 x14
End
